13																									
999999	83	93	129	133	139	151	169	135	114	110	98	99	
83	999999	40	53	62	64	91	116	93	84	95	98	89	
93	40	999999	42	42	49	59	81	54	44	58	64	54	
129	53	42	999999	11	11	46	72	65	70	88	100	89	
133	62	42	11	999999	9	35	61	55	62	82	95	84	
139	64	49	11	9	999999	39	65	63	71	90	103	92	
151	91	59	46	35	39	999999	26	34	52	71	88	77	
169	116	81	72	61	65	26	999999	37	59	75	92	83	
135	93	54	65	55	63	34	37	999999	22	39	56	47	
114	84	44	70	62	71	52	59	22	999999	20	36	26	
110	95	58	88	82	90	71	75	39	20	999999	18	11	
98	98	64	100	95	103	88	92	56	36	18	999999	11	
99	89	54	89	84	92	77	83	47	26	11	11	999999	

																									
																									
																									
																									
																									
																									
																									
																									
																									
																									
																									
																									
																									
																									
																									
																									
																									
																									
																									
																									
																									
																									
																									
																									
																									
																									
																									
																									
																									
																									
																									
																									
																									
																									
																									
																									
																									
																									
																									
																									
																									
																									
																									
																									
																									
																									
																									
																									
																									
																									
																									
																									
																									
																									
																									
																									
																									
																									
																									
																									
																									
																									
																									
																									
																									
																									
																									
																									
																									
																									
																									
																									
																									
																									
																									
																									
																									
																									
																									
																									
																									
																									
																									
																									
																									
																									
																									
																									
																									
																									
																									
																									
																									
																									
																									
																									
																									
																									
																									
																									
																									
																									
																									
																									
																									
																									
																									
																									
																									
																									
																									
																									
																									
																									
																									
																									
																									
																									
																									
																									
																									
																									
																									
																									
																									
																									
																									
																									
																									
																									
																									
																									
																									
																									
																									
																									
																									
																									
																									
																									
																									
																									
																									
																									
																									
																									
																									
																									
																									
																									
																									
																									
																									
																									
																									
																									
																									
																									
																									
																									
																									
																									
																									
																									
																									
																									
																									
																									
																									
																									
																									
																									
																									
																									
																									
																									
																									
																									
																									
																									
																									
																									
																									
																									
																									
																									
																									
																									
																									
																									
																									
																									
																									
																									
																									
																									
																									
																									
																									
																									
																									
																									
																									
																									
																									
																									
																									
																									
																									
																									
																									
																									
																									
																									
																									
																									
																									
																									
																									
																									
																									
																									
																									
																									
																									
																									
																									
																									
																									
																									
																									
																									
																									
																									
																									
																									
																									
																									
																									
																									
																									
																									
																									
																									
																									
																									
																									
																									
																									
																									
																									
																									
																									
																									
																									
																									
																									
																									
																									
																									
																									
																									
																									
																									
																									
																									
																									
																									
																									
																									
																									
																									
																									
																									
																									
																									
																									
																									
																									
																									
																									
																									
																									
																									
																									
																									
																									
																									
																									
																									
																									
																									
																									
																									
																									
																									
																									
																									
																									
																									
																									
																									
																									
																									
																									
																									
																									
																									
																									
																									
																									
																									
																									
																									
																									
																									
																									
																									
																									
																									
																									
																									
																									
																									
																									
																									
																									
																									
																									
																									
																									
																									
																									
127	181																								
179	197																								
157	161																								
197	190																								
194	182																								
202	190																								
188	160																								
188	148																								
155	128																								
136	121																								
116	103																								
100	99																								
111	107																								
132	130																								
122	130																								
139	95																								
109	51																								
125	51																								
141	81																								
148	79																								
80	37																								
65	27																								
64	58																								
93	107																								
999999	90																								
90	999999																								
